{"lblp_lower": [271.58048436526656, 343.7980103879345, 353.00857805255026, 357.29773676112507, 359.86428571428576, 361.64750000000004, 362.4000000000001], "cuttingPlaneBendInfo": [{"tot_cut_value": 0, "TOT_gen_cut": 0, "tot_time_opt": 0, "max_time_opt": 0}, {"tot_cut_value": 0, "TOT_gen_cut": 0, "tot_time_opt": 0, "max_time_opt": 0}, {"tot_cut_value": 0, "TOT_gen_cut": 0, "tot_time_opt": 0, "max_time_opt": 0}, {"tot_cut_value": 0, "TOT_gen_cut": 0, "tot_time_opt": 0, "max_time_opt": 0}, {"tot_cut_value": 0, "TOT_gen_cut": 0, "tot_time_opt": 0, "max_time_opt": 0}, {"tot_cut_value": 0, "TOT_gen_cut": 0, "tot_time_opt": 0, "max_time_opt": 0}, {"tot_cut_value": 0, "TOT_gen_cut": 0, "tot_time_opt": 0, "max_time_opt": 0}], "time_compress": [0, 0, 0, 0, 0, 0, 0], "ub_lp": [454.9000000000002, 402.60000000000014, 382.4000000000001, 382.4000000000001, 382.4000000000001, 362.4000000000001, 362.4000000000001], "prob_sizes_at_start": [{"timeGraph": 72, "capGraph": 102, "ngGraph": 52}, {"timeGraph": 100, "capGraph": 171, "ngGraph": 85}, {"timeGraph": 100, "capGraph": 197, "ngGraph": 106}, {"timeGraph": 102, "capGraph": 221, "ngGraph": 120}, {"timeGraph": 104, "capGraph": 270, "ngGraph": 130}, {"timeGraph": 114, "capGraph": 335, "ngGraph": 139}, {"timeGraph": 115, "capGraph": 412, "ngGraph": 138}], "prob_sizes_after_compress": [{"timeGraph": 6, "capGraph": 38, "ngGraph": 11}, {"timeGraph": 23, "capGraph": 39, "ngGraph": 23}, {"timeGraph": 34, "capGraph": 74, "ngGraph": 32}, {"timeGraph": 36, "capGraph": 103, "ngGraph": 40}, {"timeGraph": 27, "capGraph": 127, "ngGraph": 45}, {"timeGraph": 27, "capGraph": 206, "ngGraph": 32}, {"timeGraph": 23, "capGraph": 215, "ngGraph": 24}], "prob_sizes_after_split": [{"timeGraph": 100, "capGraph": 171, "ngGraph": 85}, {"timeGraph": 100, "capGraph": 197, "ngGraph": 106}, {"timeGraph": 102, "capGraph": 221, "ngGraph": 120}, {"timeGraph": 104, "capGraph": 270, "ngGraph": 130}, {"timeGraph": 114, "capGraph": 335, "ngGraph": 139}, {"timeGraph": 115, "capGraph": 412, "ngGraph": 138}, {"timeGraph": 82, "capGraph": 328, "ngGraph": 70}], "did_compress": [true, true, true, true, true, true, true], "lp_time_project": [0.04381370544433594, 0.013747930526733398, 0.011959075927734375, 0.02027583122253418, 0.030493974685668945, 0.048243045806884766, 0.007913827896118164], "lp_time_LB": [0.0905008316040039, 0.1777358055114746, 0.08303594589233398, 0.0631721019744873, 0.05452394485473633, 0.05276894569396973, 0.030098915100097656], "ilp_time": [], "history_of_graphs_by_iter": [], "ROOT_LP_PRIOR_ADDING_CUTS": 362.4000000000001, "OUR_ilp_objective": 362.4000000000001, "OUR_MIP_Lower_Bound": 362.40000000000003, "OUR_ilp_time": 0.013290166854858398, "OUR_gurobi_MILP_str": "Gurobi Optimizer version 12.0.1 build v12.0.1rc0 (mac64[arm] - Darwin 24.5.0 24F74)\n\nCPU model: Apple M1\nThread count: 8 physical cores, 8 logical processors, using up to 8 threads\n\nNon-default parameters:\nTimeLimit  1000\n\nWLS license 2690165 - registered to Optym\nOptimize a model with 9012 rows, 3648 columns and 28494 nonzeros\nModel fingerprint: 0xd51f1961\nVariable types: 2006 continuous, 1642 integer (1642 binary)\nCoefficient statistics:\n  Matrix range     [1e-01, 6e+02]\n  Objective range  [1e+00, 6e+01]\n  Bounds range     [1e+00, 1e+03]\n  RHS range        [1e+00, 6e+02]\nPresolve removed 8958 rows and 3587 columns\nPresolve time: 0.01s\nPresolved: 54 rows, 61 columns, 235 nonzeros\nVariable types: 56 continuous, 5 integer (5 binary)\nFound heuristic solution: objective 397.5000000\nFound heuristic solution: objective 362.4000000\n\nRoot relaxation: cutoff, 6 iterations, 0.00 seconds (0.00 work units)\n\n    Nodes    |    Current Node    |     Objective Bounds      |     Work\n Expl Unexpl |  Obj  Depth IntInf | Incumbent    BestBd   Gap | It/Node Time\n\n     0     0     cutoff    0       362.40000  362.40000  0.00%     -    0s\n\nExplored 1 nodes (6 simplex iterations) in 0.01 seconds (0.02 work units)\nThread count was 8 (of 8 available processors)\n\nSolution count 2: 362.4 397.5 \n\nOptimal solution found (tolerance 1.00e-04)\nBest objective 3.624000000000e+02, best bound 3.624000000000e+02, gap 0.0000%\n", "jy_opt": {"ParetoEps": 1e-05, "turn_off_time_windows": false, "deactivate_time_graph": false, "deactivate_demand_graph": false, "epsilon": 0.0001, "weight_slack_projector": 1e-05, "weight_compress": 0.01, "num_cust_use": 50, "dem_step_sz": 1, "time_step_sz": 25, "use_compression": 1, "max_iterations_loop_compress_project": 100, "do_round_dist_times": 1, "my_shift_bet_time_win": 0.0001, "num_terms_per_bin_init_construct": 10, "allOneBig_init": 0, "min_inc_2_compress": 0.1, "save_graph_each_iter": 0, "use_Xpress": 0, "use_ineq": 1, "xpress_file_loc": "/Users/julian/Documents/FICO_Xpress_Config/xpauth.xpr", "run_baseline": 0, "verbose": 0, "use_NG_graph": 1, "num_NG": 5, "in_demo_mode": 0, "threshold_split": 0.01, "offset_cost_edge_project": 0, "use_classic_compress": 1, "use_classic_compress_last": 0, "num_thresh_split_projector": 10, "lplb_solver": 4, "compresss_solver": 0, "proj_solver": 4, "use_julians_custom_lp_solver": 0, "do_ilp": 1, "roundingDiscretization_num_digits_keep": 3, "doExrtraRemovalEdgesLB": 0, "use_gurobi": 1, "max_ILP_time": 1000, "use_fancy_ng_graph": 1, "use_dem_graph": 1, "use_time_graph": 1, "num_multiplys_demand": 0, "DEBUG_ALLOW_DUMB_EDGES": 0, "add_all_ng_split_at_end": 0, "do_split_based_init": 1, "think_compress": 0, "use_delta_in_milp": [1], "use_delta_in_lp": 1, "turn_off_non_active_fg_project": 0, "use_new_valid_ineq": 0, "digit_mult_use": 10, "use_branch_on_g": true, "LAB_MP_ON": 0, "LAB_MP_neigh_use_power": 10, "LAB_MP_num_ineq_use": 10, "do_remove_actions_from_incumbant": 1, "ub_use_remove": 362.4, "use_packing_in_construction": 1, "maxVarsAdd_in_ITER": 10, "use_ng_size_init": 0, "do_presolve": 0, "use_diving_ineq": 0, "BEND_MIN_LP_OBJECTIVE_CUT": 0.1, "BEND_USE_RAND": 0, "BEND_MAX_SIZE_CHOOSE_K": 260, "BEND_VAL_STOP_ADDING_CUTS": 100000000, "BEND_MY_SIZES_USE": [9], "NUMERICAL_BEND_OFFSET_COST_CUT": 0.0001, "NUMERICAL_BEND_EPSILON_MULT_PARETO_OBJ": 0.001, "NO_PARETO_NUMERICAL_BEND_OFFSET_COST_CUT": 0, "NO_PARETO_BEND_VAL_STOP_ADDING_CUTS": 1, "NO_PARETO_EPSILON_MAX_VAL_CON": 0.01, "BENDERS_NEIGH_SZ_USE": 9, "Actions_of_given_sol": [], "all_vars_binary": 0, "use_ng": 1, "restore_after_each_step": 1, "compress_solver": 1, "DEBUG_NG_turn_off_CLEAN": false, "max_nodes_split": Infinity}, "output_ilp_solution": {"act_0_51": 1, "act_1_0": 1, "act_2_6": 1, "act_3_1": 1, "act_4_2": 1, "act_5_3": 1, "act_6_7": 1, "act_7_9": 1, "act_8_5": 1, "act_9_10": 1, "act_10_8": 1, "act_11_51": 1, "act_12_16": 1, "act_13_11": 1, "act_14_15": 1, "act_15_13": 1, "act_16_17": 1, "act_17_18": 1, "act_18_14": 1, "act_19_23": 1, "act_20_51": 1, "act_21_20": 1, "act_22_21": 1, "act_23_24": 1, "act_24_26": 1, "act_25_22": 1, "act_26_28": 1, "act_27_25": 1, "act_28_29": 1, "act_29_27": 1, "act_30_34": 1, "act_31_32": 1, "act_32_30": 1, "act_33_51": 1, "act_34_36": 1, "act_35_33": 1, "act_36_37": 1, "act_37_38": 1, "act_38_35": 1, "act_39_43": 1, "act_40_39": 1, "act_41_40": 1, "act_42_41": 1, "act_43_44": 1, "act_44_45": 1, "act_45_47": 1, "act_46_51": 1, "act_47_49": 1, "act_48_46": 1, "act_49_48": 1, "act_50_4": 1, "act_50_12": 1, "act_50_19": 1, "act_50_31": 1, "act_50_42": 1}, "Actions_of_given_sol": "none just used source and sink terms", "actions_used": ["act_0_51", "act_1_0", "act_2_6", "act_3_1", "act_4_2", "act_5_3", "act_6_7", "act_7_9", "act_8_5", "act_9_10", "act_10_8", "act_11_51", "act_12_16", "act_13_11", "act_14_15", "act_15_13", "act_16_17", "act_17_18", "act_18_14", "act_19_23", "act_20_51", "act_21_20", "act_22_21", "act_23_24", "act_24_26", "act_25_22", "act_26_28", "act_27_25", "act_28_29", "act_29_27", "act_30_34", "act_31_32", "act_32_30", "act_33_51", "act_34_36", "act_35_33", "act_36_37", "act_37_38", "act_38_35", "act_39_43", "act_40_39", "act_41_40", "act_42_41", "act_43_44", "act_44_45", "act_45_47", "act_46_51", "act_47_49", "act_48_46", "act_49_48", "act_50_4", "act_50_12", "act_50_19", "act_50_31", "act_50_42"], "init_default_solution_is_empty": false, "objective_of_initial_sol": 2407.7999999999975, "my_paths": "[[50, 4, 2, 6, 7, 9, 10, 8, 5, 3, 1, 0, 51], [50, 12, 16, 17, 18, 14, 15, 13, 11, 51], [50, 19, 23, 24, 26, 28, 29, 27, 25, 22, 21, 20, 51], [50, 31, 32, 30, 34, 36, 37, 38, 35, 33, 51], [50, 42, 41, 40, 39, 43, 44, 45, 47, 49, 48, 46, 51]]"}